33D32945 STP File, STP Format Version 1.0

SECTION Comment
Name    "i160-345"
Creator "Cees Duin"
Remark  "Incidence graph"
END

SECTION Graph
Nodes 160
Edges 2544
E 1 5 307
E 1 7 298
E 1 15 301
E 1 18 305
E 1 19 297
E 1 21 302
E 1 25 296
E 1 27 300
E 1 30 297
E 1 40 303
E 1 41 190
E 1 44 200
E 1 50 198
E 1 53 211
E 1 58 198
E 1 59 199
E 1 61 200
E 1 64 200
E 1 71 199
E 1 77 205
E 1 80 197
E 1 81 198
E 1 84 198
E 1 87 204
E 1 88 197
E 1 90 201
E 1 92 192
E 1 99 193
E 1 100 194
E 1 112 198
E 1 115 201
E 1 120 196
E 1 124 201
E 1 126 201
E 1 131 200
E 1 133 202
E 1 135 204
E 1 137 202
E 1 139 193
E 1 140 193
E 1 141 205
E 1 153 198
E 1 154 191
E 2 3 291
E 2 13 299
E 2 20 296
E 2 21 305
E 2 22 294
E 2 28 301
E 2 34 294
E 2 36 303
E 2 40 301
E 2 45 202
E 2 51 199
E 2 57 205
E 2 59 201
E 2 64 199
E 2 68 199
E 2 82 208
E 2 85 209
E 2 86 205
E 2 88 205
E 2 113 184
E 2 115 202
E 2 120 203
E 2 126 197
E 2 127 203
E 2 130 198
E 2 134 198
E 2 136 197
E 2 137 189
E 2 139 195
E 2 140 192
E 2 147 199
E 2 149 205
E 2 151 194
E 2 152 199
E 2 153 201
E 2 157 195
E 2 158 202
E 3 11 298
E 3 20 300
E 3 23 307
E 3 25 301
E 3 26 302
E 3 29 302
E 3 30 300
E 3 41 193
E 3 56 201
E 3 61 193
E 3 66 199
E 3 69 199
E 3 72 203
E 3 82 200
E 3 90 197
E 3 94 201
E 3 95 198
E 3 105 192
E 3 111 200
E 3 118 200
E 3 122 196
E 3 124 202
E 3 130 194
E 3 134 200
E 3 140 200
E 3 143 197
E 3 150 192
E 4 13 296
E 4 15 294
E 4 18 287
E 4 36 296
E 4 37 295
E 4 38 304
E 4 39 299
E 4 43 193
E 4 48 199
E 4 52 193
E 4 56 198
E 4 62 202
E 4 63 201
E 4 66 208
E 4 69 197
E 4 76 201
E 4 86 202
E 4 91 199
E 4 93 202
E 4 95 203
E 4 98 199
E 4 104 204
E 4 105 203
E 4 109 191
E 4 113 199
E 4 118 205
E 4 122 202
E 4 123 209
E 4 125 198
E 4 130 203
E 4 132 204
E 4 134 194
E 4 141 187
E 4 143 199
E 4 146 210
E 4 149 202
E 5 14 303
E 5 19 308
E 5 20 297
E 5 29 300
E 5 35 300
E 5 40 300
E 5 42 197
E 5 47 194
E 5 50 200
E 5 51 202
E 5 57 200
E 5 59 192
E 5 60 200
E 5 66 203
E 5 69 198
E 5 71 198
E 5 75 211
E 5 78 197
E 5 79 201
E 5 80 199
E 5 82 197
E 5 93 204
E 5 98 214
E 5 109 202
E 5 111 198
E 5 115 197
E 5 123 201
E 5 133 192
E 5 137 193
E 5 139 199
E 5 140 199
E 5 143 205
E 5 146 196
E 5 151 203
E 5 154 196
E 5 155 197
E 5 157 206
E 6 7 300
E 6 10 291
E 6 23 302
E 6 26 286
E 6 27 291
E 6 36 298
E 6 42 201
E 6 44 200
E 6 46 207
E 6 51 197
E 6 52 202
E 6 58 192
E 6 61 199
E 6 67 194
E 6 76 201
E 6 80 198
E 6 82 205
E 6 96 200
E 6 98 194
E 6 108 209
E 6 119 199
E 6 124 195
E 6 127 202
E 6 149 202
E 7 8 297
E 7 10 305
E 7 11 306
E 7 12 300
E 7 13 303
E 7 17 307
E 7 18 299
E 7 25 298
E 7 27 304
E 7 33 298
E 7 36 296
E 7 49 197
E 7 50 201
E 7 51 196
E 7 53 198
E 7 57 194
E 7 60 191
E 7 61 202
E 7 63 205
E 7 64 194
E 7 71 198
E 7 76 201
E 7 77 193
E 7 81 194
E 7 102 199
E 7 106 199
E 7 112 191
E 7 115 200
E 7 117 200
E 7 121 204
E 7 122 205
E 7 130 201
E 7 135 195
E 7 153 202
E 8 11 298
E 8 13 295
E 8 18 302
E 8 21 301
E 8 29 294
E 8 31 297
E 8 40 301
E 8 45 194
E 8 48 204
E 8 52 204
E 8 58 194
E 8 64 201
E 8 68 193
E 8 89 209
E 8 90 203
E 8 92 198
E 8 93 199
E 8 99 203
E 8 108 201
E 8 109 204
E 8 112 206
E 8 113 196
E 8 115 207
E 8 122 210
E 8 123 201
E 8 124 193
E 8 127 204
E 8 129 206
E 8 136 199
E 8 142 203
E 8 147 196
E 9 12 299
E 9 16 300
E 9 19 297
E 9 20 296
E 9 34 292
E 9 41 207
E 9 43 195
E 9 45 197
E 9 49 197
E 9 50 205
E 9 59 191
E 9 66 201
E 9 72 196
E 9 77 192
E 9 78 197
E 9 83 197
E 9 86 192
E 9 88 204
E 9 90 203
E 9 103 205
E 9 105 200
E 9 109 206
E 9 113 203
E 9 116 203
E 9 118 200
E 9 124 211
E 9 126 204
E 9 127 197
E 9 130 199
E 9 132 200
E 9 138 198
E 9 143 199
E 9 148 201
E 9 158 198
E 10 11 303
E 10 12 306
E 10 14 298
E 10 23 296
E 10 25 300
E 10 31 306
E 10 42 198
E 10 43 200
E 10 47 200
E 10 55 203
E 10 56 198
E 10 60 201
E 10 63 199
E 10 77 199
E 10 78 203
E 10 80 198
E 10 90 201
E 10 95 205
E 10 128 198
E 10 135 207
E 10 137 202
E 10 145 200
E 10 153 201
E 10 156 201
E 10 157 194
E 10 160 202
E 11 12 293
E 11 15 296
E 11 16 301
E 11 24 295
E 11 30 300
E 11 34 298
E 11 38 302
E 11 46 197
E 11 47 198
E 11 48 202
E 11 57 192
E 11 72 193
E 11 76 196
E 11 88 205
E 11 96 199
E 11 98 206
E 11 105 195
E 11 120 202
E 11 122 200
E 11 123 199
E 11 129 198
E 11 132 211
E 11 134 201
E 11 141 196
E 11 144 183
E 11 146 194
E 11 147 201
E 11 150 195
E 11 152 205
E 11 156 194
E 12 18 303
E 12 27 290
E 12 33 295
E 12 40 306
E 12 44 197
E 12 58 198
E 12 67 193
E 12 71 201
E 12 72 197
E 12 77 209
E 12 85 193
E 12 86 199
E 12 90 192
E 12 92 202
E 12 95 204
E 12 98 206
E 12 111 193
E 12 116 197
E 12 118 193
E 12 120 203
E 12 124 199
E 12 126 197
E 12 130 201
E 12 132 211
E 12 133 203
E 12 136 199
E 12 145 198
E 12 151 200
E 12 155 198
E 12 156 192
E 12 157 203
E 13 15 299
E 13 20 298
E 13 29 298
E 13 34 305
E 13 37 299
E 13 43 200
E 13 45 195
E 13 49 197
E 13 52 204
E 13 56 204
E 13 68 206
E 13 69 198
E 13 73 200
E 13 75 203
E 13 80 204
E 13 84 204
E 13 96 197
E 13 100 204
E 13 103 200
E 13 106 193
E 13 109 202
E 13 110 194
E 13 113 197
E 13 121 199
E 13 123 204
E 13 127 198
E 13 131 193
E 13 137 204
E 13 138 199
E 13 139 202
E 13 141 198
E 13 147 198
E 13 150 200
E 13 156 194
E 14 15 303
E 14 17 293
E 14 21 306
E 14 29 305
E 14 36 301
E 14 40 287
E 14 42 198
E 14 49 201
E 14 53 196
E 14 56 200
E 14 61 197
E 14 63 209
E 14 72 199
E 14 79 198
E 14 82 209
E 14 83 189
E 14 85 205
E 14 86 202
E 14 88 197
E 14 91 199
E 14 98 200
E 14 101 197
E 14 116 192
E 14 121 197
E 14 139 197
E 14 153 203
E 14 154 195
E 15 24 294
E 15 33 302
E 15 40 305
E 15 42 200
E 15 44 198
E 15 45 200
E 15 47 194
E 15 50 202
E 15 54 196
E 15 67 197
E 15 69 204
E 15 71 200
E 15 74 193
E 15 76 206
E 15 88 196
E 15 91 199
E 15 98 197
E 15 100 199
E 15 104 198
E 15 107 199
E 15 113 194
E 15 114 194
E 15 115 197
E 15 120 193
E 15 133 198
E 15 136 198
E 15 138 190
E 15 152 213
E 15 155 204
E 15 158 196
E 15 160 200
E 16 17 306
E 16 20 292
E 16 21 299
E 16 22 291
E 16 23 299
E 16 30 303
E 16 45 193
E 16 46 192
E 16 58 193
E 16 60 197
E 16 66 192
E 16 68 193
E 16 70 196
E 16 74 197
E 16 75 203
E 16 81 193
E 16 82 196
E 16 83 200
E 16 109 203
E 16 110 196
E 16 115 192
E 16 121 196
E 16 131 197
E 16 133 203
E 16 144 196
E 16 152 198
E 16 156 199
E 16 157 195
E 16 160 195
E 17 20 308
E 17 25 292
E 17 26 298
E 17 28 292
E 17 32 297
E 17 33 299
E 17 41 208
E 17 45 202
E 17 49 205
E 17 53 197
E 17 56 194
E 17 77 203
E 17 92 194
E 17 93 199
E 17 96 199
E 17 110 197
E 17 117 193
E 17 119 206
E 17 123 195
E 17 125 204
E 17 127 197
E 17 135 201
E 17 146 204
E 17 155 198
E 17 157 206
E 18 22 297
E 18 29 298
E 18 32 301
E 18 37 313
E 18 39 296
E 18 41 193
E 18 51 207
E 18 54 197
E 18 55 202
E 18 59 194
E 18 60 206
E 18 62 200
E 18 64 196
E 18 65 188
E 18 67 205
E 18 72 199
E 18 75 195
E 18 78 203
E 18 87 196
E 18 94 191
E 18 96 205
E 18 99 202
E 18 100 207
E 18 113 195
E 18 126 201
E 18 129 205
E 18 130 198
E 18 137 194
E 18 147 199
E 18 149 204
E 18 152 200
E 18 153 198
E 18 156 203
E 19 20 304
E 19 24 299
E 19 27 310
E 19 29 306
E 19 31 301
E 19 37 306
E 19 41 198
E 19 53 206
E 19 63 197
E 19 74 198
E 19 81 199
E 19 82 201
E 19 84 202
E 19 94 207
E 19 95 199
E 19 97 196
E 19 99 196
E 19 100 197
E 19 104 206
E 19 112 206
E 19 113 200
E 19 117 201
E 19 119 199
E 19 120 204
E 19 122 209
E 19 127 196
E 19 129 198
E 19 147 199
E 19 158 205
E 20 21 299
E 20 25 299
E 20 27 296
E 20 28 297
E 20 34 301
E 20 36 299
E 20 59 191
E 20 61 196
E 20 69 201
E 20 75 194
E 20 77 202
E 20 81 209
E 20 96 204
E 20 101 202
E 20 102 202
E 20 110 207
E 20 112 193
E 20 118 194
E 20 119 198
E 20 124 199
E 20 129 190
E 20 132 202
E 20 133 198
E 20 139 200
E 20 141 199
E 20 150 195
E 20 158 201
E 21 22 302
E 21 23 303
E 21 25 307
E 21 28 299
E 21 39 310
E 21 43 199
E 21 45 194
E 21 46 199
E 21 56 191
E 21 62 199
E 21 66 194
E 21 70 199
E 21 73 192
E 21 74 205
E 21 86 196
E 21 93 197
E 21 95 195
E 21 96 201
E 21 101 197
E 21 102 200
E 21 107 197
E 21 109 201
E 21 110 197
E 21 114 207
E 21 119 202
E 21 122 202
E 21 124 193
E 21 125 203
E 21 130 199
E 21 135 192
E 21 136 197
E 21 139 206
E 21 148 201
E 21 152 207
E 21 159 205
E 22 25 298
E 22 28 301
E 22 32 294
E 22 37 301
E 22 41 193
E 22 44 198
E 22 48 190
E 22 50 204
E 22 52 205
E 22 55 200
E 22 57 210
E 22 58 199
E 22 61 209
E 22 67 193
E 22 73 207
E 22 77 204
E 22 94 208
E 22 97 202
E 22 116 200
E 22 117 190
E 22 128 201
E 22 131 197
E 22 143 200
E 22 145 203
E 22 150 196
E 22 155 199
E 22 159 205
E 22 160 209
E 23 30 298
E 23 38 308
E 23 42 199
E 23 47 200
E 23 50 190
E 23 51 203
E 23 53 202
E 23 54 196
E 23 58 200
E 23 61 207
E 23 62 198
E 23 66 197
E 23 67 205
E 23 71 201
E 23 75 195
E 23 82 201
E 23 86 202
E 23 91 203
E 23 97 204
E 23 99 203
E 23 102 198
E 23 104 198
E 23 114 202
E 23 133 202
E 23 136 199
E 23 140 199
E 23 156 185
E 23 157 200
E 23 158 206
E 24 31 300
E 24 32 295
E 24 41 198
E 24 44 202
E 24 45 194
E 24 59 196
E 24 66 209
E 24 87 208
E 24 93 197
E 24 96 207
E 24 105 207
E 24 107 193
E 24 110 195
E 24 122 201
E 24 123 200
E 24 125 201
E 24 128 188
E 24 131 198
E 24 137 196
E 24 139 200
E 24 142 206
E 24 152 199
E 24 155 196
E 24 159 198
E 25 26 296
E 25 29 296
E 25 30 294
E 25 36 307
E 25 37 305
E 25 40 303
E 25 41 205
E 25 43 202
E 25 45 204
E 25 62 197
E 25 74 199
E 25 85 205
E 25 92 196
E 25 100 201
E 25 102 201
E 25 103 197
E 25 107 208
E 25 111 198
E 25 113 200
E 25 131 210
E 25 136 197
E 25 137 203
E 25 141 202
E 25 143 204
E 25 148 203
E 25 157 189
E 25 158 206
E 26 28 301
E 26 30 296
E 26 40 299
E 26 41 198
E 26 43 202
E 26 44 201
E 26 48 205
E 26 65 193
E 26 69 195
E 26 83 198
E 26 89 200
E 26 99 200
E 26 103 201
E 26 106 204
E 26 108 192
E 26 124 202
E 26 126 201
E 26 127 206
E 26 131 200
E 26 136 207
E 26 137 195
E 26 143 201
E 26 144 203
E 27 30 302
E 27 33 304
E 27 41 195
E 27 45 196
E 27 46 204
E 27 58 191
E 27 66 213
E 27 69 202
E 27 74 194
E 27 77 202
E 27 83 195
E 27 87 201
E 27 88 191
E 27 89 211
E 27 91 198
E 27 92 200
E 27 95 195
E 27 96 196
E 27 104 204
E 27 125 200
E 27 128 198
E 27 129 199
E 27 133 201
E 27 134 198
E 27 143 196
E 27 148 207
E 27 152 201
E 28 29 303
E 28 35 290
E 28 39 300
E 28 45 201
E 28 46 195
E 28 50 198
E 28 55 197
E 28 65 191
E 28 68 203
E 28 71 194
E 28 72 207
E 28 76 205
E 28 82 197
E 28 85 194
E 28 100 199
E 28 102 198
E 28 105 187
E 28 110 204
E 28 114 199
E 28 116 196
E 28 119 193
E 28 123 206
E 28 124 206
E 28 126 200
E 28 135 207
E 28 144 206
E 28 145 200
E 29 50 198
E 29 51 187
E 29 66 196
E 29 70 207
E 29 71 201
E 29 75 200
E 29 89 210
E 29 91 202
E 29 93 199
E 29 95 203
E 29 96 199
E 29 99 200
E 29 100 199
E 29 107 196
E 29 115 200
E 29 119 195
E 29 128 207
E 29 134 202
E 29 135 205
E 29 136 209
E 29 138 192
E 29 139 194
E 29 141 202
E 29 145 194
E 29 155 188
E 30 33 306
E 30 34 301
E 30 56 200
E 30 61 205
E 30 64 205
E 30 69 200
E 30 80 202
E 30 81 203
E 30 83 203
E 30 84 192
E 30 85 199
E 30 86 204
E 30 99 201
E 30 100 187
E 30 101 192
E 30 102 198
E 30 104 202
E 30 114 198
E 30 116 195
E 30 118 206
E 30 119 190
E 30 127 206
E 30 128 199
E 30 130 203
E 30 133 202
E 30 137 199
E 30 139 206
E 30 153 200
E 30 156 201
E 31 39 299
E 31 41 207
E 31 45 198
E 31 53 198
E 31 54 203
E 31 55 201
E 31 56 193
E 31 58 195
E 31 59 197
E 31 61 204
E 31 63 207
E 31 64 196
E 31 65 202
E 31 77 203
E 31 83 207
E 31 86 202
E 31 87 192
E 31 90 199
E 31 93 201
E 31 100 189
E 31 101 195
E 31 106 193
E 31 108 200
E 31 113 195
E 31 123 197
E 31 126 198
E 31 131 207
E 31 132 204
E 31 134 200
E 31 138 204
E 31 139 200
E 31 141 188
E 31 145 188
E 31 157 204
E 31 160 200
E 32 35 296
E 32 48 191
E 32 49 197
E 32 55 204
E 32 63 200
E 32 64 204
E 32 66 197
E 32 76 196
E 32 80 204
E 32 83 195
E 32 86 201
E 32 92 200
E 32 96 194
E 32 99 196
E 32 100 196
E 32 101 207
E 32 104 188
E 32 106 193
E 32 108 205
E 32 111 200
E 32 112 209
E 32 118 192
E 32 146 199
E 32 150 193
E 32 155 195
E 32 157 195
E 33 37 302
E 33 40 302
E 33 42 213
E 33 43 197
E 33 45 200
E 33 52 196
E 33 61 193
E 33 63 209
E 33 68 194
E 33 72 206
E 33 79 198
E 33 82 199
E 33 86 190
E 33 87 202
E 33 94 200
E 33 98 202
E 33 103 200
E 33 109 193
E 33 112 201
E 33 115 212
E 33 118 198
E 33 124 198
E 33 127 206
E 33 134 194
E 33 136 201
E 33 144 198
E 33 157 195
E 34 36 297
E 34 38 290
E 34 53 197
E 34 65 206
E 34 67 196
E 34 69 199
E 34 77 194
E 34 80 203
E 34 83 206
E 34 85 204
E 34 90 193
E 34 91 194
E 34 100 204
E 34 102 202
E 34 103 191
E 34 105 200
E 34 110 199
E 34 111 202
E 34 112 210
E 34 126 197
E 34 143 203
E 34 144 206
E 34 149 195
E 34 151 199
E 34 157 194
E 35 36 296
E 35 41 205
E 35 51 205
E 35 58 208
E 35 59 204
E 35 69 198
E 35 72 189
E 35 82 199
E 35 93 201
E 35 99 203
E 35 111 203
E 35 113 195
E 35 115 203
E 35 116 203
E 35 117 194
E 35 121 195
E 35 130 203
E 35 143 204
E 35 147 203
E 35 148 206
E 35 149 203
E 35 150 199
E 35 154 195
E 35 160 201
E 36 38 294
E 36 39 295
E 36 54 200
E 36 55 204
E 36 58 195
E 36 60 201
E 36 87 208
E 36 92 194
E 36 98 200
E 36 101 200
E 36 106 202
E 36 107 195
E 36 109 199
E 36 114 195
E 36 115 202
E 36 116 201
E 36 117 206
E 36 123 204
E 36 126 204
E 36 133 191
E 36 143 205
E 36 147 195
E 37 39 304
E 37 44 208
E 37 46 203
E 37 48 210
E 37 57 199
E 37 66 196
E 37 76 199
E 37 81 196
E 37 82 193
E 37 88 200
E 37 89 195
E 37 91 201
E 37 93 199
E 37 96 193
E 37 100 197
E 37 108 201
E 37 114 200
E 37 122 203
E 37 123 190
E 37 125 198
E 37 130 201
E 37 131 197
E 37 132 192
E 37 136 201
E 37 137 200
E 37 139 200
E 38 40 304
E 38 55 201
E 38 63 202
E 38 65 200
E 38 73 201
E 38 76 195
E 38 78 197
E 38 84 200
E 38 95 199
E 38 97 197
E 38 101 209
E 38 104 195
E 38 108 196
E 38 113 198
E 38 125 195
E 38 127 190
E 38 136 187
E 38 138 194
E 38 139 200
E 38 152 192
E 38 155 198
E 38 160 198
E 39 44 197
E 39 54 194
E 39 56 198
E 39 62 195
E 39 63 204
E 39 64 204
E 39 69 202
E 39 71 196
E 39 81 200
E 39 85 195
E 39 90 201
E 39 94 191
E 39 96 198
E 39 100 200
E 39 103 198
E 39 106 206
E 39 115 190
E 39 122 200
E 39 124 195
E 39 125 203
E 39 127 203
E 39 133 193
E 39 134 210
E 39 137 201
E 39 138 199
E 39 140 200
E 39 141 205
E 39 143 195
E 39 147 190
E 39 158 198
E 40 49 193
E 40 50 201
E 40 54 198
E 40 66 209
E 40 69 199
E 40 74 201
E 40 77 198
E 40 85 194
E 40 102 202
E 40 104 198
E 40 109 195
E 40 114 197
E 40 117 193
E 40 118 197
E 40 123 204
E 40 124 210
E 40 125 202
E 40 126 200
E 40 128 199
E 40 130 206
E 40 136 202
E 40 148 196
E 40 149 194
E 40 153 206
E 40 156 196
E 40 158 199
E 40 159 201
E 41 56 99
E 41 57 106
E 41 73 96
E 41 75 98
E 41 78 103
E 41 81 101
E 41 84 104
E 41 86 93
E 41 95 99
E 41 99 102
E 41 103 102
E 41 113 102
E 41 114 92
E 41 118 99
E 41 122 107
E 41 127 103
E 41 129 95
E 41 130 103
E 41 144 101
E 41 146 100
E 41 148 96
E 41 159 104
E 42 48 102
E 42 52 97
E 42 55 95
E 42 71 103
E 42 76 98
E 42 81 100
E 42 86 100
E 42 93 103
E 42 99 93
E 42 124 106
E 42 125 104
E 42 132 95
E 42 133 95
E 42 134 100
E 42 151 102
E 42 155 95
E 42 159 106
E 43 47 91
E 43 53 91
E 43 54 99
E 43 58 94
E 43 60 109
E 43 64 99
E 43 70 105
E 43 74 106
E 43 86 98
E 43 91 97
E 43 93 95
E 43 97 99
E 43 99 95
E 43 111 105
E 43 114 106
E 43 125 93
E 43 128 87
E 43 133 110
E 43 135 95
E 43 140 108
E 43 142 98
E 43 148 102
E 43 150 101
E 43 160 97
E 44 47 103
E 44 49 96
E 44 50 98
E 44 51 107
E 44 56 106
E 44 57 100
E 44 62 95
E 44 63 99
E 44 64 92
E 44 67 100
E 44 73 96
E 44 79 106
E 44 100 105
E 44 101 100
E 44 106 94
E 44 120 100
E 44 126 102
E 44 127 102
E 44 135 106
E 44 136 99
E 44 139 90
E 44 141 100
E 44 146 101
E 44 152 104
E 44 154 97
E 44 158 102
E 44 159 99
E 45 47 111
E 45 60 96
E 45 63 105
E 45 71 100
E 45 73 99
E 45 87 103
E 45 92 88
E 45 94 102
E 45 96 104
E 45 98 91
E 45 101 104
E 45 107 102
E 45 118 105
E 45 119 96
E 45 122 110
E 45 128 95
E 45 130 100
E 45 131 97
E 45 133 93
E 45 134 98
E 45 151 103
E 45 155 100
E 45 159 94
E 45 160 103
E 46 61 101
E 46 63 97
E 46 64 106
E 46 72 102
E 46 73 101
E 46 77 105
E 46 85 106
E 46 89 102
E 46 90 96
E 46 92 98
E 46 95 97
E 46 98 90
E 46 99 87
E 46 118 99
E 46 125 108
E 46 135 100
E 46 138 100
E 46 147 99
E 46 148 96
E 46 149 96
E 46 151 93
E 47 48 101
E 47 50 100
E 47 51 105
E 47 65 91
E 47 67 106
E 47 68 101
E 47 81 104
E 47 84 94
E 47 86 103
E 47 89 95
E 47 91 101
E 47 92 104
E 47 96 98
E 47 100 108
E 47 108 102
E 47 111 101
E 47 116 90
E 47 117 109
E 47 124 113
E 47 127 98
E 47 135 108
E 47 147 109
E 47 152 97
E 47 156 100
E 48 55 104
E 48 60 99
E 48 61 94
E 48 64 96
E 48 70 92
E 48 71 102
E 48 76 102
E 48 79 95
E 48 85 95
E 48 100 101
E 48 106 103
E 48 109 96
E 48 111 108
E 48 113 101
E 48 130 107
E 48 131 97
E 48 143 91
E 48 148 101
E 48 150 110
E 48 156 95
E 49 52 104
E 49 55 101
E 49 56 98
E 49 59 103
E 49 63 96
E 49 64 100
E 49 67 85
E 49 69 99
E 49 71 95
E 49 73 96
E 49 77 114
E 49 91 98
E 49 92 103
E 49 94 97
E 49 97 105
E 49 98 98
E 49 99 103
E 49 106 101
E 49 113 101
E 49 121 103
E 49 122 99
E 49 125 100
E 49 127 100
E 49 132 97
E 49 136 101
E 49 138 99
E 49 139 94
E 49 142 92
E 49 144 100
E 49 149 99
E 49 152 98
E 49 153 105
E 49 155 89
E 49 156 94
E 50 62 96
E 50 63 97
E 50 70 104
E 50 71 97
E 50 77 95
E 50 78 96
E 50 83 99
E 50 84 102
E 50 86 110
E 50 90 98
E 50 95 97
E 50 102 93
E 50 108 93
E 50 111 107
E 50 118 97
E 50 123 91
E 50 133 102
E 50 149 95
E 50 154 99
E 50 159 98
E 51 62 108
E 51 74 109
E 51 81 95
E 51 83 110
E 51 85 100
E 51 87 91
E 51 88 105
E 51 95 104
E 51 97 111
E 51 100 109
E 51 104 106
E 51 106 101
E 51 116 93
E 51 123 98
E 51 126 99
E 51 127 101
E 51 130 94
E 51 134 105
E 51 141 99
E 51 151 101
E 51 155 102
E 52 53 100
E 52 55 108
E 52 57 100
E 52 58 98
E 52 85 103
E 52 87 91
E 52 91 99
E 52 95 97
E 52 97 100
E 52 102 103
E 52 107 100
E 52 112 97
E 52 115 103
E 52 117 107
E 52 120 97
E 52 125 93
E 52 126 102
E 52 132 100
E 52 134 104
E 52 138 91
E 52 145 92
E 52 147 103
E 52 155 108
E 52 159 99
E 53 58 97
E 53 61 100
E 53 63 95
E 53 74 110
E 53 78 93
E 53 80 107
E 53 94 103
E 53 99 101
E 53 101 86
E 53 104 98
E 53 106 98
E 53 110 99
E 53 111 93
E 53 112 102
E 53 114 108
E 53 118 102
E 53 126 97
E 53 127 101
E 53 134 110
E 53 135 98
E 53 146 98
E 53 150 100
E 53 157 102
E 54 55 96
E 54 63 100
E 54 64 90
E 54 71 97
E 54 74 98
E 54 76 97
E 54 77 105
E 54 78 99
E 54 79 91
E 54 80 106
E 54 83 96
E 54 94 103
E 54 108 101
E 54 118 99
E 54 130 95
E 54 136 102
E 54 141 105
E 54 146 96
E 54 150 95
E 55 56 99
E 55 57 94
E 55 64 104
E 55 67 110
E 55 69 101
E 55 72 101
E 55 82 95
E 55 87 100
E 55 90 94
E 55 91 98
E 55 93 97
E 55 97 98
E 55 98 89
E 55 100 91
E 55 101 97
E 55 103 105
E 55 106 102
E 55 107 103
E 55 109 104
E 55 112 101
E 55 123 101
E 55 125 99
E 55 131 105
E 55 133 103
E 55 135 95
E 55 138 92
E 55 142 94
E 55 160 95
E 56 57 97
E 56 65 104
E 56 73 101
E 56 76 87
E 56 81 98
E 56 100 100
E 56 102 99
E 56 105 103
E 56 108 101
E 56 110 87
E 56 113 100
E 56 141 96
E 56 143 94
E 56 144 91
E 57 66 94
E 57 68 90
E 57 73 106
E 57 77 92
E 57 82 106
E 57 83 102
E 57 92 92
E 57 93 103
E 57 100 92
E 57 103 92
E 57 120 90
E 57 123 96
E 57 124 97
E 57 125 109
E 57 127 100
E 57 133 95
E 57 136 101
E 57 156 100
E 57 159 98
E 58 65 94
E 58 80 102
E 58 82 102
E 58 84 104
E 58 95 94
E 58 101 94
E 58 102 92
E 58 105 102
E 58 107 95
E 58 109 95
E 58 139 102
E 58 140 109
E 58 142 94
E 58 144 103
E 58 145 103
E 58 148 101
E 58 150 93
E 58 153 110
E 58 155 94
E 58 157 109
E 59 73 100
E 59 80 107
E 59 115 104
E 59 123 99
E 59 126 116
E 59 127 98
E 59 129 101
E 59 131 97
E 59 135 90
E 59 136 103
E 59 150 97
E 59 157 101
E 60 79 95
E 60 88 100
E 60 102 96
E 60 104 107
E 60 108 106
E 60 110 111
E 60 121 102
E 60 124 95
E 60 127 99
E 60 131 99
E 60 133 110
E 60 138 99
E 60 144 96
E 60 155 104
E 60 156 101
E 61 62 96
E 61 65 95
E 61 66 100
E 61 71 106
E 61 75 103
E 61 77 94
E 61 80 96
E 61 89 106
E 61 93 102
E 61 96 90
E 61 102 103
E 61 104 98
E 61 108 101
E 61 118 99
E 61 120 98
E 61 121 93
E 61 122 92
E 61 135 103
E 61 140 94
E 61 141 96
E 62 67 94
E 62 68 96
E 62 75 94
E 62 76 97
E 62 78 92
E 62 81 101
E 62 84 98
E 62 86 98
E 62 90 94
E 62 95 101
E 62 99 96
E 62 111 94
E 62 116 99
E 62 122 102
E 62 125 107
E 62 126 108
E 62 134 106
E 62 136 101
E 62 139 103
E 62 142 100
E 62 145 103
E 62 157 104
E 63 64 99
E 63 78 99
E 63 81 96
E 63 82 104
E 63 87 91
E 63 95 100
E 63 112 97
E 63 114 100
E 63 117 97
E 63 121 101
E 63 122 93
E 63 128 97
E 63 130 101
E 63 134 103
E 63 139 105
E 63 146 99
E 63 153 95
E 63 157 97
E 63 158 107
E 63 159 105
E 64 65 98
E 64 67 101
E 64 69 95
E 64 71 104
E 64 73 99
E 64 75 97
E 64 77 104
E 64 79 95
E 64 86 111
E 64 89 90
E 64 90 108
E 64 97 102
E 64 101 102
E 64 104 99
E 64 137 100
E 64 138 104
E 64 143 105
E 64 149 105
E 64 150 99
E 64 152 95
E 65 66 101
E 65 70 89
E 65 71 104
E 65 75 103
E 65 78 101
E 65 79 103
E 65 82 103
E 65 88 94
E 65 92 95
E 65 97 92
E 65 100 97
E 65 109 87
E 65 112 92
E 65 117 96
E 65 131 98
E 65 133 91
E 65 134 97
E 65 141 100
E 65 146 91
E 65 150 88
E 65 154 100
E 66 67 103
E 66 68 94
E 66 72 98
E 66 77 102
E 66 81 99
E 66 83 101
E 66 84 96
E 66 92 98
E 66 102 102
E 66 111 99
E 66 122 104
E 66 125 101
E 66 126 95
E 66 131 108
E 66 136 98
E 66 141 100
E 66 148 102
E 66 149 104
E 66 150 99
E 66 152 99
E 66 159 91
E 67 78 96
E 67 90 99
E 67 101 103
E 67 109 107
E 67 110 100
E 67 113 104
E 67 114 105
E 67 118 103
E 67 120 104
E 67 122 91
E 67 124 89
E 67 126 104
E 67 128 102
E 67 133 105
E 67 147 103
E 67 160 107
E 68 71 99
E 68 74 100
E 68 77 94
E 68 84 100
E 68 96 98
E 68 97 99
E 68 98 96
E 68 101 103
E 68 114 99
E 68 115 93
E 68 123 107
E 68 129 104
E 68 136 94
E 68 140 87
E 68 147 101
E 68 148 105
E 68 151 99
E 68 154 103
E 69 70 111
E 69 73 97
E 69 75 97
E 69 78 102
E 69 83 102
E 69 84 100
E 69 87 96
E 69 97 99
E 69 101 107
E 69 120 95
E 69 121 105
E 69 122 99
E 69 126 106
E 69 129 106
E 69 130 96
E 69 132 98
E 69 136 100
E 69 145 94
E 69 148 102
E 70 80 96
E 70 82 98
E 70 87 91
E 70 97 98
E 70 106 102
E 70 129 98
E 70 136 96
E 70 148 98
E 71 77 97
E 71 78 104
E 71 80 95
E 71 97 91
E 71 101 108
E 71 102 94
E 71 106 95
E 71 110 103
E 71 112 106
E 71 114 101
E 71 115 90
E 71 117 110
E 71 124 103
E 71 127 100
E 71 129 101
E 71 139 100
E 71 140 94
E 71 150 95
E 71 156 98
E 72 87 96
E 72 88 92
E 72 91 106
E 72 94 93
E 72 98 99
E 72 103 103
E 72 106 105
E 72 111 97
E 72 113 89
E 72 115 88
E 72 116 105
E 72 118 107
E 72 120 95
E 72 126 101
E 72 132 109
E 72 142 106
E 72 143 99
E 72 145 97
E 72 154 99
E 73 74 92
E 73 81 102
E 73 83 97
E 73 84 102
E 73 86 87
E 73 94 91
E 73 101 100
E 73 102 107
E 73 112 104
E 73 118 103
E 73 128 106
E 73 131 104
E 73 135 105
E 73 136 94
E 73 154 94
E 73 157 95
E 73 158 97
E 74 77 112
E 74 79 100
E 74 80 109
E 74 81 98
E 74 83 98
E 74 84 103
E 74 85 100
E 74 86 109
E 74 108 101
E 74 111 100
E 74 116 99
E 74 122 107
E 74 129 95
E 74 132 99
E 74 134 97
E 74 136 98
E 74 139 106
E 74 143 94
E 74 144 97
E 74 148 94
E 74 156 94
E 74 157 100
E 75 79 94
E 75 82 96
E 75 85 97
E 75 87 98
E 75 90 87
E 75 95 105
E 75 98 92
E 75 100 91
E 75 113 101
E 75 115 94
E 75 119 97
E 75 121 109
E 75 129 97
E 75 130 109
E 75 131 105
E 75 139 95
E 75 143 91
E 75 148 103
E 75 149 106
E 75 152 102
E 76 79 94
E 76 84 100
E 76 86 94
E 76 89 104
E 76 96 96
E 76 108 99
E 76 110 93
E 76 115 104
E 76 117 97
E 76 122 95
E 76 123 104
E 76 140 108
E 76 144 100
E 76 157 95
E 76 160 98
E 77 83 99
E 77 84 107
E 77 94 97
E 77 96 96
E 77 101 101
E 77 105 107
E 77 107 100
E 77 110 98
E 77 112 96
E 77 120 103
E 77 122 112
E 77 127 100
E 77 139 110
E 77 147 111
E 77 148 105
E 77 152 106
E 78 86 102
E 78 93 93
E 78 101 95
E 78 105 93
E 78 114 108
E 78 117 106
E 78 129 103
E 78 138 97
E 78 140 98
E 78 145 103
E 78 152 90
E 78 153 95
E 78 158 104
E 78 159 96
E 79 80 102
E 79 82 89
E 79 87 95
E 79 88 93
E 79 89 99
E 79 92 91
E 79 94 95
E 79 95 92
E 79 98 95
E 79 99 109
E 79 103 109
E 79 104 95
E 79 110 94
E 79 125 103
E 79 126 101
E 79 128 100
E 79 137 109
E 79 142 95
E 79 145 92
E 79 147 100
E 80 82 98
E 80 85 97
E 80 88 97
E 80 92 100
E 80 93 96
E 80 115 107
E 80 118 88
E 80 120 100
E 80 126 96
E 80 128 101
E 80 129 102
E 80 139 97
E 80 141 110
E 80 143 102
E 80 149 99
E 80 152 104
E 80 156 107
E 80 158 98
E 80 160 87
E 81 84 109
E 81 86 101
E 81 90 97
E 81 91 91
E 81 92 93
E 81 93 95
E 81 95 97
E 81 97 105
E 81 99 98
E 81 114 105
E 81 116 101
E 81 120 96
E 81 129 92
E 81 130 106
E 81 139 100
E 81 148 106
E 81 153 97
E 82 83 96
E 82 84 99
E 82 92 94
E 82 105 93
E 82 109 94
E 82 123 105
E 82 125 106
E 82 133 97
E 82 140 106
E 82 141 89
E 82 147 112
E 82 150 100
E 82 151 101
E 82 154 98
E 83 91 97
E 83 109 88
E 83 117 95
E 83 140 100
E 83 145 100
E 83 146 101
E 83 147 102
E 83 155 91
E 83 157 90
E 84 87 93
E 84 91 100
E 84 104 99
E 84 106 102
E 84 110 112
E 84 111 98
E 84 112 98
E 84 114 94
E 84 116 95
E 84 117 100
E 84 134 97
E 84 142 93
E 84 150 106
E 84 154 91
E 84 157 99
E 85 88 93
E 85 93 107
E 85 103 96
E 85 104 93
E 85 108 102
E 85 137 100
E 85 139 100
E 85 145 103
E 85 152 96
E 85 153 103
E 86 91 104
E 86 94 100
E 86 102 94
E 86 111 100
E 86 117 102
E 86 129 94
E 86 136 98
E 86 137 103
E 86 140 102
E 86 149 96
E 86 155 100
E 86 156 103
E 86 157 102
E 86 158 98
E 87 89 100
E 87 101 104
E 87 105 102
E 87 108 96
E 87 112 107
E 87 113 108
E 87 115 96
E 87 116 106
E 87 130 98
E 87 135 108
E 87 139 92
E 87 144 103
E 87 151 91
E 87 155 92
E 87 160 107
E 88 95 97
E 88 97 104
E 88 102 105
E 88 107 101
E 88 112 99
E 88 114 106
E 88 117 99
E 88 128 98
E 88 136 101
E 88 138 97
E 88 146 94
E 88 147 102
E 88 152 93
E 88 154 97
E 89 90 94
E 89 93 104
E 89 95 95
E 89 96 103
E 89 102 104
E 89 104 100
E 89 108 104
E 89 119 104
E 89 123 100
E 89 127 106
E 89 128 106
E 89 141 100
E 89 146 101
E 89 152 89
E 89 159 85
E 90 91 97
E 90 93 101
E 90 100 100
E 90 101 106
E 90 107 100
E 90 108 98
E 90 115 94
E 90 119 99
E 90 124 101
E 90 125 96
E 90 129 95
E 90 130 99
E 90 137 106
E 90 143 92
E 90 145 105
E 90 146 106
E 90 154 98
E 91 92 98
E 91 100 101
E 91 109 92
E 91 127 107
E 91 128 102
E 91 134 100
E 91 143 94
E 91 147 99
E 91 148 103
E 91 149 101
E 91 155 96
E 92 97 96
E 92 106 104
E 92 112 105
E 92 115 99
E 92 118 100
E 92 121 102
E 92 123 98
E 92 130 99
E 92 133 106
E 92 138 100
E 92 149 100
E 92 153 98
E 93 94 93
E 93 96 92
E 93 100 105
E 93 112 102
E 93 114 92
E 93 120 94
E 93 127 107
E 93 133 98
E 93 137 108
E 93 148 94
E 93 155 98
E 94 101 96
E 94 103 104
E 94 110 88
E 94 112 99
E 94 115 93
E 94 129 107
E 94 130 100
E 94 139 106
E 94 144 108
E 94 146 102
E 94 157 99
E 95 99 100
E 95 103 97
E 95 104 98
E 95 119 97
E 95 123 97
E 95 125 91
E 95 126 110
E 95 135 105
E 95 143 99
E 95 149 99
E 95 159 95
E 96 107 97
E 96 113 95
E 96 117 96
E 96 120 100
E 96 122 98
E 96 131 100
E 96 134 100
E 96 139 99
E 96 141 99
E 96 143 103
E 96 146 103
E 96 148 102
E 96 154 104
E 97 102 107
E 97 106 94
E 97 108 102
E 97 111 96
E 97 120 97
E 97 129 100
E 97 139 96
E 97 142 100
E 97 147 101
E 97 153 102
E 97 154 102
E 97 156 103
E 97 158 98
E 97 160 105
E 98 108 103
E 98 119 108
E 98 123 98
E 98 124 100
E 98 125 102
E 98 132 104
E 98 134 98
E 98 143 95
E 98 144 105
E 98 148 98
E 99 111 97
E 99 126 109
E 99 130 97
E 99 135 97
E 99 141 97
E 99 148 103
E 99 152 99
E 99 156 108
E 99 159 99
E 100 111 99
E 100 113 102
E 100 122 106
E 100 125 82
E 100 129 96
E 100 140 94
E 100 147 93
E 100 159 99
E 100 160 92
E 101 111 107
E 101 112 91
E 101 116 95
E 101 118 100
E 101 120 86
E 101 124 100
E 101 130 95
E 101 131 106
E 101 151 96
E 101 153 100
E 102 106 98
E 102 119 93
E 102 122 102
E 102 128 100
E 102 143 89
E 102 159 96
E 103 106 95
E 103 107 90
E 103 118 106
E 103 121 95
E 103 124 102
E 103 125 95
E 103 134 102
E 103 139 105
E 103 140 100
E 103 145 104
E 103 152 93
E 104 105 101
E 104 131 98
E 104 132 95
E 104 134 103
E 104 139 100
E 104 144 103
E 104 146 100
E 104 150 92
E 104 151 101
E 104 153 106
E 104 157 107
E 105 110 97
E 105 111 111
E 105 117 99
E 105 127 90
E 105 134 100
E 105 135 106
E 105 136 99
E 105 139 98
E 105 141 105
E 105 146 107
E 106 109 94
E 106 112 99
E 106 116 95
E 106 128 104
E 106 130 102
E 106 131 102
E 106 132 94
E 106 134 93
E 106 138 98
E 106 143 99
E 106 146 107
E 106 149 104
E 106 151 96
E 106 156 101
E 107 108 97
E 107 131 104
E 107 141 100
E 107 142 91
E 107 145 92
E 107 148 102
E 108 111 96
E 108 113 104
E 108 127 95
E 108 135 102
E 108 138 99
E 108 149 98
E 108 154 94
E 108 158 89
E 108 159 104
E 109 112 100
E 109 114 102
E 109 118 97
E 109 125 102
E 109 132 95
E 109 136 108
E 109 140 97
E 109 145 95
E 109 148 102
E 109 149 104
E 109 154 95
E 109 158 100
E 109 159 96
E 109 160 106
E 110 113 104
E 110 115 96
E 110 120 95
E 110 134 94
E 110 136 103
E 110 155 98
E 110 158 100
E 111 114 90
E 111 127 94
E 111 135 94
E 111 141 101
E 111 145 101
E 111 155 102
E 112 114 95
E 112 119 95
E 112 121 104
E 112 122 97
E 112 128 98
E 112 129 96
E 112 130 93
E 112 135 107
E 112 143 96
E 112 147 100
E 112 149 102
E 112 153 104
E 112 157 100
E 113 118 103
E 113 121 93
E 113 124 108
E 113 128 103
E 113 132 103
E 113 135 105
E 113 139 99
E 113 146 103
E 113 149 104
E 114 131 96
E 114 138 102
E 114 145 103
E 114 158 103
E 115 125 101
E 115 135 106
E 115 137 100
E 115 138 97
E 116 117 103
E 116 121 109
E 116 127 94
E 116 128 104
E 116 133 99
E 116 134 100
E 116 139 98
E 116 148 107
E 116 150 92
E 116 151 95
E 117 121 103
E 117 127 100
E 117 131 91
E 117 134 98
E 117 144 98
E 117 148 103
E 117 150 101
E 117 151 109
E 117 154 108
E 117 155 101
E 117 157 96
E 118 122 105
E 118 125 94
E 118 130 112
E 118 135 102
E 118 136 90
E 118 139 95
E 118 142 103
E 118 146 96
E 118 148 96
E 118 150 101
E 118 156 96
E 119 120 97
E 119 127 93
E 119 130 97
E 119 143 100
E 119 154 89
E 120 126 98
E 120 127 96
E 120 130 102
E 120 143 94
E 120 144 90
E 120 146 96
E 120 149 86
E 120 155 97
E 120 156 98
E 120 158 100
E 120 160 98
E 121 122 106
E 121 128 109
E 121 131 105
E 121 136 106
E 121 138 108
E 121 143 93
E 121 146 105
E 121 148 102
E 121 156 102
E 122 123 101
E 122 124 103
E 122 125 91
E 122 134 99
E 122 137 93
E 122 138 96
E 122 145 97
E 122 147 84
E 122 150 111
E 122 154 104
E 122 158 97
E 123 124 94
E 123 127 104
E 123 130 93
E 123 131 109
E 123 145 103
E 123 146 103
E 123 151 102
E 123 152 102
E 123 160 95
E 124 127 106
E 124 129 95
E 124 135 92
E 124 136 100
E 124 156 95
E 125 127 98
E 125 128 106
E 125 139 106
E 125 149 106
E 125 153 97
E 126 137 102
E 126 141 102
E 126 146 95
E 126 147 95
E 126 149 97
E 126 156 95
E 126 157 99
E 126 160 100
E 127 132 94
E 127 133 93
E 127 140 97
E 127 141 103
E 127 150 92
E 127 153 104
E 127 155 111
E 127 160 100
E 128 130 98
E 128 132 102
E 128 135 96
E 128 143 102
E 128 149 96
E 128 150 99
E 129 143 98
E 129 145 101
E 129 152 106
E 129 153 100
E 129 154 90
E 129 155 98
E 130 132 92
E 130 138 99
E 130 143 107
E 130 146 96
E 130 147 104
E 130 156 102
E 131 134 104
E 131 142 103
E 131 146 102
E 131 147 97
E 131 149 93
E 131 150 98
E 131 151 96
E 131 154 94
E 131 157 103
E 131 160 108
E 132 136 102
E 132 140 108
E 132 141 102
E 132 142 106
E 132 157 101
E 133 136 107
E 133 137 103
E 133 140 97
E 133 142 105
E 133 145 93
E 133 150 98
E 133 156 99
E 134 138 100
E 134 142 107
E 134 145 106
E 135 140 102
E 135 141 106
E 135 148 97
E 135 151 101
E 135 154 93
E 136 137 103
E 136 138 102
E 136 142 103
E 136 150 109
E 137 142 97
E 137 144 102
E 137 145 91
E 137 151 100
E 137 153 100
E 137 158 100
E 137 159 97
E 138 140 90
E 138 141 92
E 138 148 91
E 138 149 103
E 138 150 100
E 138 158 103
E 139 145 102
E 139 151 92
E 139 153 103
E 139 154 106
E 140 154 97
E 140 159 101
E 141 142 102
E 141 143 107
E 141 146 105
E 141 148 103
E 141 154 96
E 141 160 94
E 142 146 100
E 142 158 103
E 143 150 95
E 143 151 106
E 144 147 102
E 144 150 99
E 144 160 102
E 145 146 91
E 146 148 104
E 146 150 102
E 146 154 95
E 147 149 103
E 147 151 101
E 149 151 98
E 149 157 109
E 150 151 98
E 150 157 101
E 151 154 102
E 152 153 93
E 152 155 106
E 157 160 97
E 159 160 91
END

SECTION Terminals
Terminals 40
T 1
T 2
T 3
T 4
T 5
T 6
T 7
T 8
T 9
T 10
T 11
T 12
T 13
T 14
T 15
T 16
T 17
T 18
T 19
T 20
T 21
T 22
T 23
T 24
T 25
T 26
T 27
T 28
T 29
T 30
T 31
T 32
T 33
T 34
T 35
T 36
T 37
T 38
T 39
T 40
END

EOF
